Default variable names x1, x2 ... being created.
Default row names c1, c2 ... being created.
Tried aggregator 1 time.
Reduced MIP has 304 rows, 40 columns, and 626 nonzeros.
Reduced MIP has 40 binaries, 0 generals, 0 SOSs, and 0 indicators.
Presolve time = 0.00 sec. (0.56 ticks)
Found incumbent of value 0.000000 after 0.00 sec. (0.74 ticks)
Probing fixed 10 vars, tightened 0 bounds.
Probing time = 0.00 sec. (0.07 ticks)
Tried aggregator 1 time.
MIP Presolve eliminated 175 rows and 10 columns.
Reduced MIP has 129 rows, 30 columns, and 276 nonzeros.
Reduced MIP has 30 binaries, 0 generals, 0 SOSs, and 0 indicators.
Presolve time = 0.00 sec. (0.27 ticks)
Probing time = 0.00 sec. (0.04 ticks)
Tried aggregator 1 time.
Reduced MIP has 129 rows, 30 columns, and 276 nonzeros.
Reduced MIP has 30 binaries, 0 generals, 0 SOSs, and 0 indicators.
Presolve time = 0.00 sec. (0.21 ticks)
Probing time = 0.00 sec. (0.04 ticks)
Clique table members: 141.
MIP emphasis: balance optimality and feasibility.
MIP search method: dynamic search.
Parallel mode: deterministic, using up to 4 threads.
Root relaxation solution time = 0.00 sec. (0.46 ticks)

        Nodes                                         Cuts/
   Node  Left     Objective  IInf  Best Integer    Best Bound    ItCnt     Gap

*     0+    0                            0.0000       10.0000              --- 
      0     0        7.5000    30        0.0000        7.5000       56     --- 
*     0+    0                            1.0000        7.5000           650.00%
      0     0        6.5323    28        1.0000      Cuts: 76       71  553.23%
*     0+    0                            2.0000        6.5323           226.61%
      0     0        6.3177    28        2.0000      Fract: 1       79  215.89%
      0     0        6.2955    27        2.0000   ZeroHalf: 1       84  214.78%
      0     0        6.2522    27        2.0000   ZeroHalf: 2       94  212.61%
      0     0        6.2343    29        2.0000   ZeroHalf: 1      102  211.72%
      0     0        6.2186    27        2.0000   ZeroHalf: 2      109  210.93%
*     0+    0                            3.0000        6.2186           107.29%
      0     0        6.1765    28        3.0000   ZeroHalf: 1      115  105.88%
      0     0        6.1753    27        3.0000   ZeroHalf: 1      119  105.84%
      0     0        6.1607    27        3.0000   ZeroHalf: 1      123  105.36%
      0     0        6.1601    27        3.0000   ZeroHalf: 3      128  105.34%
      0     0        6.1585    28        3.0000   ZeroHalf: 1      131  105.28%
      0     0        6.1456    29        3.0000   ZeroHalf: 2      139  104.85%
      0     0        6.1204    27        3.0000   ZeroHalf: 5      149  104.01%
      0     0        6.1204    28        3.0000   ZeroHalf: 1      152  104.01%
      0     0        cutoff              3.0000        3.0000      152    0.00%
Elapsed time = 0.02 sec. (15.99 ticks, tree = 0.00 MB, solutions = 4)

Clique cuts applied:  20
Zero-half cuts applied:  6
Lift and project cuts applied:  1
Gomory fractional cuts applied:  1

Root node processing (before b&c):
  Real time             =    0.02 sec. (16.00 ticks)
Parallel b&c, 4 threads:
  Real time             =    0.00 sec. (0.00 ticks)
  Sync time (average)   =    0.00 sec.
  Wait time (average)   =    0.00 sec.
                          ------------
Total (root+branch&cut) =    0.02 sec. (16.00 ticks)
